p cnf 12 50 
-5 -1 -8 0
-5 -11 -6 0
7 2 -3 0
7 -5 -6 0
8 7 2 0
4 3 1 0
3 -11 5 0
3 -5 10 0
-8 2 -9 0
3 -8 -9 0
-6 7 12 0
-9 12 -11 0
-12 -10 2 0
-9 5 -12 0
-8 2 -5 0
6 11 8 0
-7 8 -1 0
2 -9 -11 0
6 2 3 0
-9 -12 3 0
2 -1 9 0
6 -12 11 0
3 -8 -11 0
7 -12 3 0
5 -1 -3 0
-10 -3 -8 0
2 -6 -8 0
11 -8 7 0
8 -7 -3 0
9 -2 8 0
10 4 -8 0
4 9 2 0
-5 10 -9 0
-11 3 -9 0
9 10 -2 0
-9 -5 8 0
7 -6 4 0
12 -3 -6 0
-11 -10 -5 0
10 8 3 0
-6 -12 4 0
-4 2 1 0
-11 -1 -2 0
-1 -5 3 0
-12 1 7 0
9 -3 -11 0
-2 -7 6 0
-5 1 -7 0
2 -9 -1 0
3 -11 -1 0
